nNurses = 185;
nHours = 27;
minHours = 5;
maxHours = 10;
maxConsec = 10;
maxPresence = 13;
demand = [23, 24, 23, 24, 20, 20, 19, 23, 18, 15, 13, 16, 17, 13, 9, 7, 11, 14, 13, 11, 14, 10, 15, 16, 15, 12, 10];
